qe/outputs/qe/cbrdelay_obs_newl/T=6,eliminate=[I_0,I_1,I_2,I_3,I_4,I_5,L_4,L_5,lhs=L_3],pl=1.smt2
; benchmark generated from python API
(set-info :status unknown)
(declare-fun C () Real)
(declare-fun S_4 () Real)
(declare-fun S_5 () Real)
(declare-fun S_0 () Real)
(declare-fun L_0 () Real)
(declare-fun A_0 () Real)
(declare-fun L_3 () Real)
(declare-fun A_5 () Real)
(declare-fun S_3 () Real)
(declare-fun S_2 () Real)
(declare-fun S_1 () Real)
(declare-fun A_4 () Real)
(declare-fun L_2 () Real)
(declare-fun A_2 () Real)
(declare-fun A_1 () Real)
(declare-fun L_1 () Real)
(declare-fun B () Real)
(declare-fun A_3 () Real)
(assert
 (let (($x39 (>= L_0 0.0)))
 (let (($x771 (>= C 5.0)))
 (let (($x2141 (<= (+ (* (- 1.0) S_5) A_4 (* (- 1.0) L_3)) 0.0)))
 (let (($x7823 (<= 0.0 (+ A_2 (* (- 1.0) L_2) (* (- 1.0) A_4) (* 2.0 C) L_3))))
 (let (($x4474 (<= (+ (* (- 1.0) S_5) (* 2.0 C) S_2) 0.0)))
 (let (($x4562 (<= (+ (* (- 1.0) S_5) C S_3) 0.0)))
 (let (($x1308 (<= (+ L_1 (* (- 1.0) A_1) A_4 (* (- 3.0) C) (* (- 1.0) L_3)) 0.0)))
 (let (($x76 (= L_3 L_2)))
 (let (($x13071 (or $x76 (<= (+ (* (- 1.0) A_3) (* 3.0 C) S_0 L_3 B) 0.0))))
 (let (($x7844 (not (<= 0.0 (+ (* (- 1.0) L_2) L_1)))))
 (let (($x13417 (or $x76 (<= (+ A_2 (* (- 1.0) L_1) (* (- 1.0) A_3) C L_3) 0.0) $x7844)))
 (let ((?x268 (* (- 1.0) B)))
 (let ((?x311 (* (- 1.0) L_3)))
 (let ((?x1166 (* (- 3.0) C)))
 (let ((?x1324 (* (- 1.0) A_0)))
 (let (($x13354 (or $x76 (<= (+ (* (- 1.0) A_3) (* 2.0 C) S_1 L_3 B) 0.0))))
 (let (($x13021 (or $x76 (<= (+ S_4 (* (- 1.0) A_3) (* (- 1.0) C) L_3 B) 0.0))))
 (let (($x12714 (or $x76 (<= (+ S_5 (* (- 1.0) A_3) (* (- 2.0) C) L_3 B) 0.0))))
 (let (($x2940 (<= (+ (* (- 1.0) L_0) A_1 (* (- 1.0) A_3) (* 2.0 C) L_3) 0.0)))
 (let (($x56 (= L_1 L_0)))
 (let (($x1847 (not $x56)))
 (let (($x1607 (not $x76)))
 (let (($x66 (= L_2 L_1)))
 (let (($x12820 (or $x66 (<= (+ (* (- 1.0) A_2) L_2 (* (- 1.0) C) S_3 B) 0.0))))
 (let (($x13401 (or $x66 $x1847 (<= (+ (* (- 1.0) A_2) L_2 (* (- 1.0) L_0) A_1 C) 0.0))))
 (let (($x8355 (or $x66 (<= (+ (* (- 1.0) A_2) L_2 (* 2.0 C) S_0 B) 0.0))))
 (let (($x2317 (= (+ A_2 (* (- 1.0) L_2) (* (- 1.0) A_3) C L_3) 0.0)))
 (let (($x2330 (<= (+ (* (- 1.0) A_2) L_2 S_5 ?x1166 B) 0.0)))
 (let (($x2310 (<= (+ A_2 (* (- 1.0) L_2) (* (- 2.0) C) (* (- 1.0) S_1) ?x268) 0.0)))
 (let (($x2359 (<= (+ A_2 (* (- 1.0) L_2) ?x1324 L_0 (* (- 2.0) C) ?x268) 0.0)))
 (let (($x2307 (<= (+ A_2 (* (- 1.0) L_2) (* (- 1.0) C) (* (- 1.0) S_2) ?x268) 0.0)))
 (let (($x1085 (<= (+ (* (- 1.0) S_5) (* (- 1.0) L_1) A_1 (* 3.0 C) ?x268) 0.0)))
 (let (($x571 (<= 0.0 (+ L_2 (* (- 1.0) L_1) A_1 (* (- 1.0) A_3) (* 2.0 C)))))
 (let (($x1190 (<= (+ S_5 L_1 (* (- 1.0) A_1) (* (- 4.0) C) B) 0.0)))
 (let ((?x277 (* (- 1.0) L_1)))
 (let ((?x921 (+ L_0 ?x277)))
 (let (($x589 (<= 0.0 ?x921)))
 (let (($x1205 (<= (+ L_1 (* (- 1.0) A_1) (* (- 2.0) C) S_3 B) 0.0)))
 (let (($x1318 (= (+ (* (- 1.0) A_2) L_2 ?x277 A_1 C) 0.0)))
 (let (($x1338 (not $x1318)))
 (let (($x1314 (= (+ ?x277 A_1 (* (- 1.0) A_3) (* 2.0 C) L_3) 0.0)))
 (let (($x13413 (or $x56 (<= (+ L_1 (* (- 1.0) A_1) (* (- 1.0) C) S_2 B) 0.0))))
 (let (($x137 (>= S_4 S_3)))
 (let (($x143 (>= A_2 A_1)))
 (let (($x128 (>= S_1 S_0)))
 (let (($x131 (>= S_2 S_1)))
 (let (($x134 (>= S_3 S_2)))
 (let (($x144 (>= A_3 A_2)))
 (let (($x145 (>= A_4 A_3)))
 (let (($x146 (>= A_5 A_4)))
 (and (<= (+ A_2 (* (- 1.0) L_2)) S_5) (<= (+ A_0 (* (- 1.0) L_0)) S_4) (not (<= (+ A_1 ?x277) S_4)) $x146 $x145 $x144 $x134 $x131 $x128 $x143 $x137 (or (not $x589) $x56) (or $x56 (<= (+ L_1 (* (- 1.0) A_1) S_1 B) 0.0)) (or $x56 (<= (+ L_1 (* (- 1.0) A_1) C S_0 B) 0.0)) $x13413 (or $x56 $x66 $x1318) (<= (+ (* (- 1.0) S_4) ?x277 A_1 (* 2.0 C) ?x268) 0.0) (or $x66 $x76 $x1314 $x1338) (or $x56 $x76 $x1314) (or $x66 $x571 $x1338 $x1607) (<= (+ ?x1324 L_0 ?x277 A_1 (* (- 1.0) C) ?x268) 0.0) (<= (+ ?x277 A_1 (* (- 1.0) S_2) ?x268) 0.0) (or $x76 $x1190 (not $x1314)) (<= (+ ?x277 A_1 (* (- 1.0) C) (* (- 1.0) S_1) ?x268) 0.0) (<= (+ ?x277 A_1 (* (- 2.0) C) (* (- 1.0) S_0) ?x268) 0.0) (or $x66 $x1205 $x1338) (or $x66 $x1190 $x1338) (or $x56 (<= 0.0 (+ (* (- 1.0) A_2) A_1 C)) (not $x66)) (<= (+ ?x277 A_1 C (* (- 1.0) S_3) ?x268) 0.0) (or $x56 $x1205) (or $x589 (<= (+ S_4 L_1 (* (- 1.0) A_1) ?x1166 B) 0.0)) (or $x589 $x1190) (or $x56 $x571 $x1607) (or $x1085 $x1308) (or $x1085 $x2141) (or $x66 (<= (+ (* (- 1.0) A_2) L_2 S_2 B) 0.0)) (or $x66 (<= (+ (* (- 1.0) A_2) L_2 C S_1 B) 0.0)) (<= (+ A_2 (* (- 1.0) L_2) (* (- 1.0) S_3) ?x268) 0.0) $x2307 $x2359 (<= (+ A_2 (* (- 1.0) L_2) ?x1166 (* (- 1.0) S_0) ?x268) 0.0) $x2310 (or $x76 $x2330 (not $x2317)) (<= (+ A_2 (* (- 1.0) L_2) (* (- 1.0) S_4) C ?x268) 0.0) (or $x66 $x76 $x2317) $x8355 $x13401 $x12820 (or $x66 $x2330) (or $x66 $x7844) (or $x66 $x1607 (<= 0.0 (+ A_2 (* (- 1.0) A_3) C))) (or $x76 (<= (+ (* (- 1.0) A_3) S_3 L_3 B) 0.0)) (or $x76 $x1847 $x2940) (<= (+ (* (- 1.0) S_4) A_3 ?x311 ?x268) 0.0) $x12714 $x13021 (<= (+ (* (- 1.0) S_5) A_3 C ?x311 ?x268) 0.0) (<= (+ A_3 (* (- 2.0) C) (* (- 1.0) S_2) ?x311 ?x268) 0.0) (<= (+ A_3 (* (- 1.0) C) (* (- 1.0) S_3) ?x311 ?x268) 0.0) (<= (+ A_3 ?x1166 (* (- 1.0) S_1) ?x311 ?x268) 0.0) (or $x76 (<= (+ (* (- 1.0) A_3) C S_2 L_3 B) 0.0)) $x13354 (<= (+ A_3 (* (- 4.0) C) (* (- 1.0) S_0) ?x311 ?x268) 0.0) (<= (+ ?x1324 L_0 A_3 ?x1166 ?x311 ?x268) 0.0) (or $x76 (not (<= 0.0 (+ L_2 ?x311)))) $x13417 $x13071 (<= (+ C (* (- 1.0) S_2) S_0) 0.0) (<= (+ S_4 (* (- 5.0) C) (* (- 1.0) S_0)) 0.0) (<= (+ S_4 (* (- 2.0) C) (* (- 1.0) S_3)) 0.0) (<= (+ S_5 (* (- 6.0) C) (* (- 1.0) S_0)) 0.0) (<= (+ S_5 (* (- 4.0) C) (* (- 1.0) S_2)) 0.0) (<= (+ (* 2.0 C) (* (- 1.0) S_3) S_0) 0.0) (<= (+ (* (- 1.0) S_4) (* 3.0 C) S_0) 0.0) (<= (+ (* (- 1.0) S_4) (* 2.0 C) S_1) 0.0) (<= (+ ?x1324 L_0 (* (- 1.0) C) S_1) 0.0) (<= (+ (* (- 2.0) C) S_1 (* (- 1.0) S_0)) 0.0) (or $x1308 (<= (+ (* (- 1.0) S_5) (* 3.0 C) S_1) 0.0)) (<= (+ ?x1324 L_0 ?x1166 S_3) 0.0) (<= (+ (* (- 2.0) C) S_3 (* (- 1.0) S_2)) 0.0) (<= (+ ?x1166 S_2 (* (- 1.0) S_0)) 0.0) (<= (+ C (* (- 1.0) S_3) S_1) 0.0) (or $x1308 $x4562) (<= (+ (* (- 4.0) C) S_3 (* (- 1.0) S_0)) 0.0) (<= (+ S_4 (* (- 4.0) C) (* (- 1.0) S_1)) 0.0) (<= (+ S_4 ?x1324 L_0 (* (- 4.0) C)) 0.0) (<= (+ S_4 ?x1166 (* (- 1.0) S_2)) 0.0) (<= (+ ?x1166 S_3 (* (- 1.0) S_1)) 0.0) (<= (+ S_5 ?x1324 L_0 (* (- 5.0) C)) 0.0) (<= (+ S_5 (* (- 5.0) C) (* (- 1.0) S_1)) 0.0) (<= (+ S_5 (* (- 1.0) A_4) L_3 (* (- 1.0) C)) 0.0) (or $x2141 $x4562) (or $x2141 (<= (+ (* (- 1.0) S_5) (* 3.0 C) S_1) 0.0)) (or $x4474 $x7823) (or $x2141 $x4474) (or $x2141 (<= (+ (* (- 1.0) S_5) (* 4.0 C) S_0) 0.0)) (<= (+ ?x1324 L_0 (* (- 2.0) C) S_2) 0.0) (<= (+ (* (- 2.0) C) S_2 (* (- 1.0) S_1)) 0.0) (<= (+ (* (- 1.0) S_4) C S_2) 0.0) (<= (+ S_5 ?x1166 (* (- 1.0) S_3)) 0.0) (<= (+ S_5 (* (- 1.0) A_5) L_3) 0.0) $x771 $x39 (<= (+ ?x1324 L_0 S_0) 0.0) (<= (+ S_5 (* (- 1.0) S_4) (* (- 2.0) C)) 0.0)))))))))))))))))))))))))))))))))))))))))))))))))))))
(check-sat)
